c SAT Generator for power-law distributed variable frequencies
c -g u -v 20 -c 91 -k 3 -p 2.750000 -b 3.200000 -f /home/schmidt/Devel/ni-kop-sat/data/ensemble/ruf20-91/ruf20-91-909 -u 1 -U 1 -s 3186095175
p cnf 20 91
-3 -13 -19 0
11 -12 -14 0
1 2 -9 0
8 13 16 0
1 -8 -18 0
4 -6 19 0
1 -11 13 0
-1 15 -18 0
5 -12 14 0
-2 -7 -13 0
-8 17 20 0
-12 14 15 0
-2 -11 13 0
4 6 -10 0
-16 18 -19 0
-2 -5 -7 0
-7 18 19 0
7 -8 -20 0
15 -19 -20 0
6 -9 -13 0
1 -9 -16 0
3 6 -20 0
6 -10 -15 0
-3 -11 14 0
-11 -15 20 0
-4 8 -10 0
-11 -12 -17 0
1 -15 17 0
-9 15 -19 0
8 10 -15 0
-5 18 20 0
1 -2 -11 0
-3 17 20 0
2 -3 -18 0
-2 -5 -15 0
13 14 20 0
2 -3 18 0
7 -10 -19 0
-3 14 15 0
8 10 13 0
5 -8 15 0
8 18 19 0
-7 18 -20 0
9 -11 16 0
-3 10 18 0
1 18 20 0
5 -16 18 0
4 5 -13 0
-1 9 -12 0
1 -2 17 0
5 12 13 0
1 -2 -10 0
4 6 -14 0
9 -18 19 0
1 2 15 0
3 7 -12 0
1 -13 19 0
3 -8 15 0
7 -8 10 0
-1 13 -15 0
-1 3 -14 0
-2 17 -20 0
8 -17 -19 0
3 11 -20 0
2 17 20 0
-14 -15 -19 0
5 -9 10 0
3 -5 -17 0
4 -7 -9 0
-4 6 -16 0
-2 8 -18 0
-12 18 20 0
1 13 15 0
-2 6 9 0
-5 -6 7 0
-10 13 19 0
-4 6 11 0
4 6 -18 0
7 -15 -17 0
-2 12 13 0
-15 16 -18 0
-4 -15 17 0
-3 18 20 0
1 11 13 0
13 15 -19 0
-10 -16 -17 0
2 5 -6 0
-13 -17 -20 0
8 -10 -20 0
4 8 -20 0
-9 13 -17 0
